(set-info :smt-lib-version 2.6)
(set-logic QF_NIA)
(set-info :source |
Generated by: Cristina Borralleras, Daniel Larraz, Albert Oliveras, Enric Rodriguez-Carbonell, Albert Rubio
Generated on: 2017-04-27
Generator: VeryMax
Application: Termination proving
Target solver: barcelogic
|)
(set-info :license "https://creativecommons.org/licenses/by/4.0/")
(set-info :category "industrial")
(set-info :status sat)
(declare-fun Nl11arg11 () Int)
(declare-fun Nl11arg21 () Int)
(declare-fun Nl11arg31 () Int)
(declare-fun Nl11arg41 () Int)
(declare-fun Nl11arg51 () Int)
(declare-fun Nl11arg12 () Int)
(declare-fun Nl11arg22 () Int)
(declare-fun Nl11arg32 () Int)
(declare-fun Nl11arg42 () Int)
(declare-fun Nl11arg52 () Int)
(declare-fun lam0n0 () Int)
(declare-fun lam0n1 () Int)
(declare-fun lam0n2 () Int)
(declare-fun lam0n3 () Int)
(declare-fun lam0n4 () Int)
(declare-fun lam0n5 () Int)
(declare-fun lam0n6 () Int)
(declare-fun lam0n7 () Int)
(declare-fun lam0n8 () Int)
(declare-fun lam0n9 () Int)
(declare-fun lam0n10 () Int)
(declare-fun lam0n11 () Int)
(declare-fun UndefCntr0_CT () Int)
(declare-fun Nl11CT1 () Int)
(declare-fun Nl11CT2 () Int)
(declare-fun UndefCntr0_arg1 () Int)
(declare-fun UndefCntr0_arg2 () Int)
(declare-fun UndefCntr0_arg3 () Int)
(declare-fun UndefCntr0_arg4 () Int)
(declare-fun UndefCntr0_arg5 () Int)
(declare-fun UndefCntr0_undef304 () Int)
(declare-fun UndefCntr0_undef305 () Int)
(declare-fun UndefCntr0_undef306 () Int)
(declare-fun UndefCntr0_undef307 () Int)
(declare-fun UndefCntr0_undef308 () Int)
(declare-fun lam1n0 () Int)
(declare-fun lam1n1 () Int)
(declare-fun lam1n2 () Int)
(declare-fun lam1n3 () Int)
(declare-fun lam1n4 () Int)
(declare-fun lam1n5 () Int)
(declare-fun lam1n6 () Int)
(declare-fun lam1n7 () Int)
(declare-fun lam1n8 () Int)
(declare-fun lam1n9 () Int)
(declare-fun lam1n10 () Int)
(declare-fun lam1n11 () Int)
(declare-fun lam2n0 () Int)
(declare-fun lam2n1 () Int)
(declare-fun lam2n2 () Int)
(declare-fun lam2n3 () Int)
(declare-fun lam2n4 () Int)
(declare-fun lam2n5 () Int)
(declare-fun lam2n6 () Int)
(declare-fun lam2n7 () Int)
(declare-fun lam2n8 () Int)
(declare-fun lam2n9 () Int)
(declare-fun lam2n10 () Int)
(declare-fun lam2n11 () Int)
(declare-fun lam3n0 () Int)
(declare-fun lam3n1 () Int)
(declare-fun lam3n2 () Int)
(declare-fun lam3n3 () Int)
(declare-fun lam3n4 () Int)
(declare-fun lam3n5 () Int)
(declare-fun lam3n6 () Int)
(declare-fun lam3n7 () Int)
(declare-fun lam3n8 () Int)
(declare-fun lam3n9 () Int)
(declare-fun lam3n10 () Int)
(declare-fun lam3n11 () Int)
(declare-fun lam3n12 () Int)
(declare-fun lam3n13 () Int)
(declare-fun lam4n0 () Int)
(declare-fun lam4n1 () Int)
(declare-fun lam4n2 () Int)
(declare-fun lam4n3 () Int)
(declare-fun lam4n4 () Int)
(declare-fun lam4n5 () Int)
(declare-fun lam4n6 () Int)
(declare-fun lam4n7 () Int)
(declare-fun lam4n8 () Int)
(declare-fun lam4n9 () Int)
(declare-fun lam4n10 () Int)
(declare-fun lam4n11 () Int)
(declare-fun lam4n12 () Int)
(declare-fun lam4n13 () Int)
(declare-fun lam5n0 () Int)
(declare-fun lam5n1 () Int)
(declare-fun lam5n2 () Int)
(declare-fun lam5n3 () Int)
(declare-fun lam5n4 () Int)
(declare-fun lam5n5 () Int)
(declare-fun lam5n6 () Int)
(declare-fun lam5n7 () Int)
(declare-fun lam6n0 () Int)
(declare-fun lam6n1 () Int)
(declare-fun lam6n2 () Int)
(declare-fun lam6n3 () Int)
(declare-fun lam6n4 () Int)
(declare-fun lam6n5 () Int)
(declare-fun lam6n6 () Int)
(declare-fun lam6n7 () Int)
(declare-fun undef1 () Int)
(declare-fun undef2 () Int)
(declare-fun undef289 () Int)
(declare-fun undef301 () Int)
(declare-fun undef302 () Int)
(declare-fun undef366 () Int)
(declare-fun undef290 () Int)
(declare-fun undef303 () Int)
(declare-fun undef367 () Int)
(declare-fun undef291 () Int)
(declare-fun undef292 () Int)
(declare-fun undef293 () Int)
(declare-fun arg1 () Int)
(declare-fun arg2 () Int)
(declare-fun undef276 () Int)
(declare-fun arg3 () Int)
(declare-fun undef288 () Int)
(declare-fun undef277 () Int)
(declare-fun undef278 () Int)
(declare-fun undef279 () Int)
(declare-fun undef280 () Int)
(declare-fun FV_arg1_1 () Int)
(declare-fun FV_arg2_1 () Int)
(declare-fun FV_arg3_1 () Int)
(declare-fun FV_arg4_1 () Int)
(declare-fun FV_arg5_1 () Int)
(declare-fun FV_undef304_0 () Int)
(declare-fun FV_undef305_0 () Int)
(declare-fun FV_arg1_0 () Int)
(declare-fun FV_arg2_0 () Int)
(declare-fun FV_arg3_0 () Int)
(declare-fun FV_arg4_0 () Int)
(declare-fun FV_arg5_0 () Int)
(declare-fun FV_undef306_0 () Int)
(declare-fun FV_undef307_0 () Int)
(declare-fun FV_undef308_0 () Int)
(declare-fun lam7n0 () Int)
(declare-fun lam7n1 () Int)
(declare-fun lam7n2 () Int)
(declare-fun lam7n3 () Int)
(declare-fun lam7n4 () Int)
(declare-fun lam7n5 () Int)
(declare-fun lam7n6 () Int)
(declare-fun lam7n7 () Int)
(declare-fun lam8n0 () Int)
(declare-fun lam8n1 () Int)
(declare-fun lam8n2 () Int)
(declare-fun lam8n3 () Int)
(declare-fun lam8n4 () Int)
(declare-fun lam8n5 () Int)
(declare-fun lam8n6 () Int)
(declare-fun lam8n7 () Int)
(declare-fun lam9n0 () Int)
(declare-fun lam9n1 () Int)
(declare-fun lam9n2 () Int)
(declare-fun lam9n3 () Int)
(declare-fun lam9n4 () Int)
(declare-fun lam9n5 () Int)
(declare-fun lam9n6 () Int)
(declare-fun lam9n7 () Int)
(declare-fun lam9n8 () Int)
(declare-fun lam10n0 () Int)
(declare-fun lam10n1 () Int)
(declare-fun lam10n2 () Int)
(declare-fun lam10n3 () Int)
(declare-fun lam10n4 () Int)
(declare-fun lam10n5 () Int)
(declare-fun lam10n6 () Int)
(declare-fun lam11n0 () Int)
(declare-fun lam11n1 () Int)
(declare-fun lam11n2 () Int)
(declare-fun lam11n3 () Int)
(declare-fun lam11n4 () Int)
(declare-fun lam11n5 () Int)
(declare-fun lam11n6 () Int)
(declare-fun lam11n7 () Int)
(declare-fun lam12n0 () Int)
(declare-fun lam12n1 () Int)
(declare-fun lam12n2 () Int)
(declare-fun lam12n3 () Int)
(declare-fun lam12n4 () Int)
(declare-fun lam12n5 () Int)
(declare-fun lam12n6 () Int)
(declare-fun lam13n0 () Int)
(declare-fun lam13n1 () Int)
(declare-fun lam13n2 () Int)
(declare-fun lam13n3 () Int)
(declare-fun lam13n4 () Int)
(declare-fun lam13n5 () Int)
(declare-fun lam13n6 () Int)
(declare-fun lam13n7 () Int)
(declare-fun lam14n0 () Int)
(declare-fun lam14n1 () Int)
(declare-fun lam14n2 () Int)
(declare-fun lam14n3 () Int)
(declare-fun lam14n4 () Int)
(declare-fun lam14n5 () Int)
(declare-fun lam14n6 () Int)
(declare-fun lam14n7 () Int)
(declare-fun lam15n0 () Int)
(declare-fun lam15n1 () Int)
(declare-fun lam15n2 () Int)
(declare-fun lam15n3 () Int)
(declare-fun lam15n4 () Int)
(declare-fun lam15n5 () Int)
(declare-fun lam15n6 () Int)
(declare-fun lam16n0 () Int)
(declare-fun lam16n1 () Int)
(declare-fun lam16n2 () Int)
(declare-fun lam16n3 () Int)
(declare-fun lam16n4 () Int)
(declare-fun lam16n5 () Int)
(declare-fun lam16n6 () Int)
(declare-fun lam16n7 () Int)
(declare-fun lam16n8 () Int)
(declare-fun lam17n0 () Int)
(declare-fun lam17n1 () Int)
(declare-fun lam17n2 () Int)
(declare-fun lam17n3 () Int)
(declare-fun lam17n4 () Int)
(declare-fun lam17n5 () Int)
(declare-fun lam17n6 () Int)
(declare-fun lam17n7 () Int)
(declare-fun lam18n0 () Int)
(declare-fun lam18n1 () Int)
(declare-fun lam18n2 () Int)
(declare-fun lam18n3 () Int)
(declare-fun lam18n4 () Int)
(declare-fun lam18n5 () Int)
(declare-fun lam18n6 () Int)
(declare-fun lam18n7 () Int)
(declare-fun lam19n0 () Int)
(declare-fun lam19n1 () Int)
(declare-fun lam19n2 () Int)
(declare-fun lam19n3 () Int)
(declare-fun lam19n4 () Int)
(declare-fun lam19n5 () Int)
(declare-fun lam19n6 () Int)
(declare-fun lam20n0 () Int)
(declare-fun lam20n1 () Int)
(declare-fun lam20n2 () Int)
(declare-fun lam20n3 () Int)
(declare-fun lam20n4 () Int)
(declare-fun lam20n5 () Int)
(declare-fun lam20n6 () Int)
(declare-fun lam21n0 () Int)
(declare-fun lam21n1 () Int)
(declare-fun lam21n2 () Int)
(declare-fun lam21n3 () Int)
(declare-fun lam21n4 () Int)
(declare-fun lam21n5 () Int)
(declare-fun lam21n6 () Int)
(declare-fun lam21n7 () Int)
(declare-fun lam22n0 () Int)
(declare-fun lam22n1 () Int)
(declare-fun lam22n2 () Int)
(declare-fun lam22n3 () Int)
(declare-fun lam22n4 () Int)
(declare-fun lam22n5 () Int)
(declare-fun lam22n6 () Int)
(declare-fun lam22n7 () Int)
(declare-fun lam23n0 () Int)
(declare-fun lam23n1 () Int)
(declare-fun lam23n2 () Int)
(declare-fun lam23n3 () Int)
(declare-fun lam23n4 () Int)
(declare-fun lam23n5 () Int)
(declare-fun lam23n6 () Int)
(declare-fun lam23n7 () Int)
(declare-fun lam23n8 () Int)
(declare-fun lam24n0 () Int)
(declare-fun lam24n1 () Int)
(declare-fun lam24n2 () Int)
(declare-fun lam24n3 () Int)
(declare-fun lam24n4 () Int)
(declare-fun lam24n5 () Int)
(declare-fun lam24n6 () Int)
(declare-fun lam24n7 () Int)
(declare-fun lam25n0 () Int)
(declare-fun lam25n1 () Int)
(declare-fun lam25n2 () Int)
(declare-fun lam25n3 () Int)
(declare-fun lam25n4 () Int)
(declare-fun lam25n5 () Int)
(declare-fun lam25n6 () Int)
(declare-fun lam26n0 () Int)
(declare-fun lam26n1 () Int)
(declare-fun lam26n2 () Int)
(declare-fun lam26n3 () Int)
(declare-fun lam26n4 () Int)
(declare-fun lam26n5 () Int)
(declare-fun lam26n6 () Int)
(declare-fun lam27n0 () Int)
(declare-fun lam27n1 () Int)
(declare-fun lam27n2 () Int)
(declare-fun lam27n3 () Int)
(declare-fun lam27n4 () Int)
(declare-fun lam27n5 () Int)
(declare-fun FV_arg1_2 () Int)
(declare-fun FV_arg2_2 () Int)
(declare-fun FV_arg4_2 () Int)
(declare-fun FV_arg3_2 () Int)
(declare-fun FV_arg5_2 () Int)
(declare-fun FV_undef304_2 () Int)
(declare-fun FV_undef305_2 () Int)
(assert ( and ( <= ( - 1 ) Nl11arg11 ) ( <= Nl11arg11 1 ) ( <= ( - 1 ) Nl11arg21 ) ( <= Nl11arg21 1 ) ( <= ( - 1 ) Nl11arg31 ) ( <= Nl11arg31 1 ) ( <= ( - 1 ) Nl11arg41 ) ( <= Nl11arg41 1 ) ( <= ( - 1 ) Nl11arg51 ) ( <= Nl11arg51 1 ) ( <= ( - 1 ) Nl11arg12 ) ( <= Nl11arg12 1 ) ( <= ( - 1 ) Nl11arg22 ) ( <= Nl11arg22 1 ) ( <= ( - 1 ) Nl11arg32 ) ( <= Nl11arg32 1 ) ( <= ( - 1 ) Nl11arg42 ) ( <= Nl11arg42 1 ) ( <= ( - 1 ) Nl11arg52 ) ( <= Nl11arg52 1 ) ))
(assert ( or ( and ( >= lam0n0 0 ) ( >= lam0n1 0 ) ( >= lam0n2 0 ) ( >= lam0n3 0 ) ( >= lam0n4 0 ) ( >= lam0n5 0 ) ( >= lam0n6 0 ) ( >= lam0n7 0 ) ( >= lam0n8 0 ) ( >= lam0n9 0 ) ( >= lam0n10 0 ) ( >= lam0n11 0 ) ( > ( + ( * 1 lam0n0 ) ( * 1 lam0n1 ) ( * 1 lam0n2 ) ( * 2 lam0n4 ) ( * 2 lam0n5 ) ( * 2 lam0n6 ) ( * 4 lam0n7 ) ( * 3 lam0n8 ) ( * UndefCntr0_CT lam0n9 ) ( * Nl11CT1 lam0n10 ) ( * Nl11CT2 lam0n11 ) ( - 1 ) ) 0 ) ( = ( + ( * ( - 1 ) lam0n0 ) ( * ( - 1 ) lam0n4 ) ( * ( - 1 ) lam0n5 ) ( * ( - 1 ) lam0n6 ) ( * ( - 1 ) lam0n7 ) ( * ( - 1 ) lam0n8 ) ( * UndefCntr0_arg1 lam0n9 ) ( * Nl11arg11 lam0n10 ) ( * Nl11arg12 lam0n11 ) ) 0 ) ( = ( + ( * ( - 1 ) lam0n0 ) ( * ( - 1 ) lam0n1 ) ( * ( - 1 ) lam0n4 ) ( * ( - 1 ) lam0n7 ) ( * UndefCntr0_arg2 lam0n9 ) ( * Nl11arg21 lam0n10 ) ( * Nl11arg22 lam0n11 ) ) 0 ) ( = ( + ( * 1 lam0n4 ) ( * 1 lam0n5 ) ( * UndefCntr0_arg3 lam0n9 ) ( * Nl11arg31 lam0n10 ) ( * Nl11arg32 lam0n11 ) ) 0 ) ( = ( + ( * 1 lam0n0 ) ( * 1 lam0n6 ) ( * UndefCntr0_arg4 lam0n9 ) ( * Nl11arg41 lam0n10 ) ( * Nl11arg42 lam0n11 ) ) 0 ) ( = ( + ( * UndefCntr0_arg5 lam0n9 ) ( * Nl11arg51 lam0n10 ) ( * Nl11arg52 lam0n11 ) ) 0 ) ( = ( + ( * ( - 1 ) lam0n2 ) ( * UndefCntr0_undef304 lam0n9 ) ) 0 ) ( = ( + ( * ( - 1 ) lam0n3 ) ( * UndefCntr0_undef305 lam0n9 ) ) 0 ) ( = ( * UndefCntr0_undef306 lam0n9 ) 0 ) ( = ( * UndefCntr0_undef307 lam0n9 ) 0 ) ( = ( * UndefCntr0_undef308 lam0n9 ) 0 ) ) ( and ( >= lam1n0 0 ) ( >= lam1n1 0 ) ( >= lam1n2 0 ) ( >= lam1n3 0 ) ( >= lam1n4 0 ) ( >= lam1n5 0 ) ( >= lam1n6 0 ) ( >= lam1n7 0 ) ( >= lam1n8 0 ) ( >= lam1n9 0 ) ( >= lam1n10 0 ) ( >= lam1n11 0 ) ( > ( + ( * 1 lam1n0 ) ( * 1 lam1n1 ) ( * 1 lam1n2 ) ( * 2 lam1n4 ) ( * 2 lam1n5 ) ( * 2 lam1n6 ) ( * 4 lam1n7 ) ( * 3 lam1n8 ) ( * UndefCntr0_CT lam1n9 ) ( * Nl11CT1 lam1n10 ) ( * Nl11CT2 lam1n11 ) ( - 1 ( + ( + ( + ( + ( + Nl11CT1 ( * Nl11arg11 0 ) ) ( * Nl11arg21 0 ) ) ( * Nl11arg31 0 ) ) ( * Nl11arg41 0 ) ) ( * Nl11arg51 0 ) ) ) ) 0 ) ( = ( + ( * ( - 1 ) lam1n0 ) ( * ( - 1 ) lam1n4 ) ( * ( - 1 ) lam1n5 ) ( * ( - 1 ) lam1n6 ) ( * ( - 1 ) lam1n7 ) ( * ( - 1 ) lam1n8 ) ( * UndefCntr0_arg1 lam1n9 ) ( * Nl11arg11 lam1n10 ) ( * Nl11arg12 lam1n11 ) ) 0 ) ( = ( + ( * ( - 1 ) lam1n0 ) ( * ( - 1 ) lam1n1 ) ( * ( - 1 ) lam1n4 ) ( * ( - 1 ) lam1n7 ) ( * UndefCntr0_arg2 lam1n9 ) ( * Nl11arg21 lam1n10 ) ( * Nl11arg22 lam1n11 ) ) 0 ) ( = ( + ( * 1 lam1n4 ) ( * 1 lam1n5 ) ( * UndefCntr0_arg3 lam1n9 ) ( * Nl11arg31 lam1n10 ) ( * Nl11arg32 lam1n11 ) ) 0 ) ( = ( + ( * 1 lam1n0 ) ( * 1 lam1n6 ) ( * UndefCntr0_arg4 lam1n9 ) ( * Nl11arg41 lam1n10 ) ( * Nl11arg42 lam1n11 ) ) 0 ) ( = ( + ( * UndefCntr0_arg5 lam1n9 ) ( * Nl11arg51 lam1n10 ) ( * Nl11arg52 lam1n11 ) ) 0 ) ( = ( + ( * ( - 1 ) lam1n2 ) ( * UndefCntr0_undef304 lam1n9 ) ( - ( + 0 ( * Nl11arg11 1 ) ) ) ) 0 ) ( = ( + ( * ( - 1 ) lam1n3 ) ( * UndefCntr0_undef305 lam1n9 ) ( - ( + 0 ( * Nl11arg21 1 ) ) ) ) 0 ) ( = ( + ( * UndefCntr0_undef306 lam1n9 ) ( - ( + 0 ( * Nl11arg31 1 ) ) ) ) 0 ) ( = ( + ( * UndefCntr0_undef307 lam1n9 ) ( - ( + 0 ( * Nl11arg41 1 ) ) ) ) 0 ) ( = ( + ( * UndefCntr0_undef308 lam1n9 ) ( - ( + 0 ( * Nl11arg51 1 ) ) ) ) 0 ) ) ))
(assert ( or ( and ( >= lam0n0 0 ) ( >= lam0n1 0 ) ( >= lam0n2 0 ) ( >= lam0n3 0 ) ( >= lam0n4 0 ) ( >= lam0n5 0 ) ( >= lam0n6 0 ) ( >= lam0n7 0 ) ( >= lam0n8 0 ) ( >= lam0n9 0 ) ( >= lam0n10 0 ) ( >= lam0n11 0 ) ( > ( + ( * 1 lam0n0 ) ( * 1 lam0n1 ) ( * 1 lam0n2 ) ( * 2 lam0n4 ) ( * 2 lam0n5 ) ( * 2 lam0n6 ) ( * 4 lam0n7 ) ( * 3 lam0n8 ) ( * UndefCntr0_CT lam0n9 ) ( * Nl11CT1 lam0n10 ) ( * Nl11CT2 lam0n11 ) ( - 1 ) ) 0 ) ( = ( + ( * ( - 1 ) lam0n0 ) ( * ( - 1 ) lam0n4 ) ( * ( - 1 ) lam0n5 ) ( * ( - 1 ) lam0n6 ) ( * ( - 1 ) lam0n7 ) ( * ( - 1 ) lam0n8 ) ( * UndefCntr0_arg1 lam0n9 ) ( * Nl11arg11 lam0n10 ) ( * Nl11arg12 lam0n11 ) ) 0 ) ( = ( + ( * ( - 1 ) lam0n0 ) ( * ( - 1 ) lam0n1 ) ( * ( - 1 ) lam0n4 ) ( * ( - 1 ) lam0n7 ) ( * UndefCntr0_arg2 lam0n9 ) ( * Nl11arg21 lam0n10 ) ( * Nl11arg22 lam0n11 ) ) 0 ) ( = ( + ( * 1 lam0n4 ) ( * 1 lam0n5 ) ( * UndefCntr0_arg3 lam0n9 ) ( * Nl11arg31 lam0n10 ) ( * Nl11arg32 lam0n11 ) ) 0 ) ( = ( + ( * 1 lam0n0 ) ( * 1 lam0n6 ) ( * UndefCntr0_arg4 lam0n9 ) ( * Nl11arg41 lam0n10 ) ( * Nl11arg42 lam0n11 ) ) 0 ) ( = ( + ( * UndefCntr0_arg5 lam0n9 ) ( * Nl11arg51 lam0n10 ) ( * Nl11arg52 lam0n11 ) ) 0 ) ( = ( + ( * ( - 1 ) lam0n2 ) ( * UndefCntr0_undef304 lam0n9 ) ) 0 ) ( = ( + ( * ( - 1 ) lam0n3 ) ( * UndefCntr0_undef305 lam0n9 ) ) 0 ) ( = ( * UndefCntr0_undef306 lam0n9 ) 0 ) ( = ( * UndefCntr0_undef307 lam0n9 ) 0 ) ( = ( * UndefCntr0_undef308 lam0n9 ) 0 ) ) ( and ( >= lam2n0 0 ) ( >= lam2n1 0 ) ( >= lam2n2 0 ) ( >= lam2n3 0 ) ( >= lam2n4 0 ) ( >= lam2n5 0 ) ( >= lam2n6 0 ) ( >= lam2n7 0 ) ( >= lam2n8 0 ) ( >= lam2n9 0 ) ( >= lam2n10 0 ) ( >= lam2n11 0 ) ( > ( + ( * 1 lam2n0 ) ( * 1 lam2n1 ) ( * 1 lam2n2 ) ( * 2 lam2n4 ) ( * 2 lam2n5 ) ( * 2 lam2n6 ) ( * 4 lam2n7 ) ( * 3 lam2n8 ) ( * UndefCntr0_CT lam2n9 ) ( * Nl11CT1 lam2n10 ) ( * Nl11CT2 lam2n11 ) ( - 1 ( + ( + ( + ( + ( + Nl11CT2 ( * Nl11arg12 0 ) ) ( * Nl11arg22 0 ) ) ( * Nl11arg32 0 ) ) ( * Nl11arg42 0 ) ) ( * Nl11arg52 0 ) ) ) ) 0 ) ( = ( + ( * ( - 1 ) lam2n0 ) ( * ( - 1 ) lam2n4 ) ( * ( - 1 ) lam2n5 ) ( * ( - 1 ) lam2n6 ) ( * ( - 1 ) lam2n7 ) ( * ( - 1 ) lam2n8 ) ( * UndefCntr0_arg1 lam2n9 ) ( * Nl11arg11 lam2n10 ) ( * Nl11arg12 lam2n11 ) ) 0 ) ( = ( + ( * ( - 1 ) lam2n0 ) ( * ( - 1 ) lam2n1 ) ( * ( - 1 ) lam2n4 ) ( * ( - 1 ) lam2n7 ) ( * UndefCntr0_arg2 lam2n9 ) ( * Nl11arg21 lam2n10 ) ( * Nl11arg22 lam2n11 ) ) 0 ) ( = ( + ( * 1 lam2n4 ) ( * 1 lam2n5 ) ( * UndefCntr0_arg3 lam2n9 ) ( * Nl11arg31 lam2n10 ) ( * Nl11arg32 lam2n11 ) ) 0 ) ( = ( + ( * 1 lam2n0 ) ( * 1 lam2n6 ) ( * UndefCntr0_arg4 lam2n9 ) ( * Nl11arg41 lam2n10 ) ( * Nl11arg42 lam2n11 ) ) 0 ) ( = ( + ( * UndefCntr0_arg5 lam2n9 ) ( * Nl11arg51 lam2n10 ) ( * Nl11arg52 lam2n11 ) ) 0 ) ( = ( + ( * ( - 1 ) lam2n2 ) ( * UndefCntr0_undef304 lam2n9 ) ( - ( + 0 ( * Nl11arg12 1 ) ) ) ) 0 ) ( = ( + ( * ( - 1 ) lam2n3 ) ( * UndefCntr0_undef305 lam2n9 ) ( - ( + 0 ( * Nl11arg22 1 ) ) ) ) 0 ) ( = ( + ( * UndefCntr0_undef306 lam2n9 ) ( - ( + 0 ( * Nl11arg32 1 ) ) ) ) 0 ) ( = ( + ( * UndefCntr0_undef307 lam2n9 ) ( - ( + 0 ( * Nl11arg42 1 ) ) ) ) 0 ) ( = ( + ( * UndefCntr0_undef308 lam2n9 ) ( - ( + 0 ( * Nl11arg52 1 ) ) ) ) 0 ) ) ))
(assert ( and ( <= ( + Nl11CT1 ( * Nl11arg11 FV_arg1_1 ) ( * Nl11arg21 FV_arg2_1 ) ( * Nl11arg31 FV_arg3_1 ) ( * Nl11arg41 FV_arg4_1 ) ( * Nl11arg51 FV_arg5_1 ) ) 0 ) ( <= ( + Nl11CT2 ( * Nl11arg12 FV_arg1_1 ) ( * Nl11arg22 FV_arg2_1 ) ( * Nl11arg32 FV_arg3_1 ) ( * Nl11arg42 FV_arg4_1 ) ( * Nl11arg52 FV_arg5_1 ) ) 0 ) ))
(assert ( or ( not ( = UndefCntr0_arg1 0 ) ) ( not ( = UndefCntr0_arg2 0 ) ) ( not ( = UndefCntr0_arg3 0 ) ) ( not ( = UndefCntr0_arg4 0 ) ) ( not ( = UndefCntr0_arg5 0 ) ) ( not ( = UndefCntr0_undef304 0 ) ) ( not ( = UndefCntr0_undef305 0 ) ) ( not ( = UndefCntr0_undef306 0 ) ) ( not ( = UndefCntr0_undef307 0 ) ) ( not ( = UndefCntr0_undef308 0 ) ) ( = UndefCntr0_CT 0 ) ))
(assert ( or ( and ( = UndefCntr0_arg1 0 ) ( = UndefCntr0_arg2 0 ) ( = UndefCntr0_arg3 0 ) ( = UndefCntr0_arg4 0 ) ( = UndefCntr0_arg5 0 ) ) ( or ( not ( = UndefCntr0_undef304 0 ) ) ( not ( = UndefCntr0_undef305 0 ) ) ( not ( = UndefCntr0_undef306 0 ) ) ( not ( = UndefCntr0_undef307 0 ) ) ( not ( = UndefCntr0_undef308 0 ) ) ) ))
(assert ( or ( = UndefCntr0_undef304 0 ) ( and ( and ( = UndefCntr0_arg1 0 ) ( = UndefCntr0_arg2 0 ) ( = UndefCntr0_arg3 0 ) ( = UndefCntr0_arg4 0 ) ( = UndefCntr0_arg5 0 ) ( = UndefCntr0_undef306 0 ) ( = UndefCntr0_undef307 0 ) ( = UndefCntr0_undef308 0 ) ( = UndefCntr0_undef305 0 ) ) ( or ( and ( <= ( + 1 ( * ( - 1 ) FV_undef304_0 ) ) 0 ) ( <= ( + UndefCntr0_CT ( * UndefCntr0_undef304 FV_undef304_0 ) ( * UndefCntr0_undef305 FV_undef305_0 ) ( * UndefCntr0_arg1 FV_arg1_0 ) ( * UndefCntr0_arg2 FV_arg2_0 ) ( * UndefCntr0_arg3 FV_arg3_0 ) ( * UndefCntr0_arg4 FV_arg4_0 ) ( * UndefCntr0_arg5 FV_arg5_0 ) ( * UndefCntr0_undef306 FV_undef306_0 ) ( * UndefCntr0_undef307 FV_undef307_0 ) ( * UndefCntr0_undef308 FV_undef308_0 ) ) 0 ) ) ( and ( <= ( + 1 ( * ( - 1 ) FV_undef304_0 ) ) 0 ) ( <= ( + UndefCntr0_CT ( * UndefCntr0_undef304 FV_undef304_0 ) ( * UndefCntr0_undef305 FV_undef305_0 ) ( * UndefCntr0_arg1 FV_arg1_0 ) ( * UndefCntr0_arg2 FV_arg2_0 ) ( * UndefCntr0_arg3 FV_arg3_0 ) ( * UndefCntr0_arg4 FV_arg4_0 ) ( * UndefCntr0_arg5 FV_arg5_0 ) ( * UndefCntr0_undef306 FV_undef306_0 ) ( * UndefCntr0_undef307 FV_undef307_0 ) ( * UndefCntr0_undef308 FV_undef308_0 ) ) 0 ) ) ) ) ))
(assert ( or ( = UndefCntr0_undef305 0 ) ( and ( and ( = UndefCntr0_arg1 0 ) ( = UndefCntr0_arg2 0 ) ( = UndefCntr0_arg3 0 ) ( = UndefCntr0_arg4 0 ) ( = UndefCntr0_arg5 0 ) ( = UndefCntr0_undef306 0 ) ( = UndefCntr0_undef307 0 ) ( = UndefCntr0_undef308 0 ) ( = UndefCntr0_undef304 0 ) ) ( or ( and ( <= ( * ( - 1 ) FV_undef305_0 ) 0 ) ( <= ( + UndefCntr0_CT ( * UndefCntr0_undef304 FV_undef304_0 ) ( * UndefCntr0_undef305 FV_undef305_0 ) ( * UndefCntr0_arg1 FV_arg1_0 ) ( * UndefCntr0_arg2 FV_arg2_0 ) ( * UndefCntr0_arg3 FV_arg3_0 ) ( * UndefCntr0_arg4 FV_arg4_0 ) ( * UndefCntr0_arg5 FV_arg5_0 ) ( * UndefCntr0_undef306 FV_undef306_0 ) ( * UndefCntr0_undef307 FV_undef307_0 ) ( * UndefCntr0_undef308 FV_undef308_0 ) ) 0 ) ) ( and ( <= ( * ( - 1 ) FV_undef305_0 ) 0 ) ( <= ( + UndefCntr0_CT ( * UndefCntr0_undef304 FV_undef304_0 ) ( * UndefCntr0_undef305 FV_undef305_0 ) ( * UndefCntr0_arg1 FV_arg1_0 ) ( * UndefCntr0_arg2 FV_arg2_0 ) ( * UndefCntr0_arg3 FV_arg3_0 ) ( * UndefCntr0_arg4 FV_arg4_0 ) ( * UndefCntr0_arg5 FV_arg5_0 ) ( * UndefCntr0_undef306 FV_undef306_0 ) ( * UndefCntr0_undef307 FV_undef307_0 ) ( * UndefCntr0_undef308 FV_undef308_0 ) ) 0 ) ) ) ) ))
(assert ( or ( and ( >= lam7n0 0 ) ( >= lam7n1 0 ) ( >= lam7n2 0 ) ( >= lam7n3 0 ) ( >= lam7n4 0 ) ( >= lam7n5 0 ) ( >= lam7n6 0 ) ( >= lam7n7 0 ) ( > ( + ( * 1 lam7n0 ) ( * 1 lam7n1 ) ( * 2 lam7n2 ) ( * 2 lam7n3 ) ( * 2 lam7n4 ) ( * ( - 2 ) lam7n5 ) ( * Nl11CT1 lam7n6 ) ( * Nl11CT2 lam7n7 ) ( - 1 ) ) 0 ) ( = ( + ( * ( - 1 ) lam7n0 ) ( * ( - 1 ) lam7n2 ) ( * ( - 1 ) lam7n3 ) ( * ( - 1 ) lam7n4 ) ( * 1 lam7n5 ) ( * Nl11arg11 lam7n6 ) ( * Nl11arg12 lam7n7 ) ) 0 ) ( = ( + ( * ( - 1 ) lam7n0 ) ( * ( - 1 ) lam7n1 ) ( * ( - 1 ) lam7n2 ) ( * Nl11arg21 lam7n6 ) ( * Nl11arg22 lam7n7 ) ) 0 ) ( = ( + ( * 1 lam7n2 ) ( * 1 lam7n3 ) ( * Nl11arg31 lam7n6 ) ( * Nl11arg32 lam7n7 ) ) 0 ) ( = ( + ( * 1 lam7n0 ) ( * 1 lam7n4 ) ( * Nl11arg41 lam7n6 ) ( * Nl11arg42 lam7n7 ) ) 0 ) ( = ( + ( * Nl11arg51 lam7n6 ) ( * Nl11arg52 lam7n7 ) ) 0 ) ) ( and ( >= lam8n0 0 ) ( >= lam8n1 0 ) ( >= lam8n2 0 ) ( >= lam8n3 0 ) ( >= lam8n4 0 ) ( >= lam8n5 0 ) ( >= lam8n6 0 ) ( >= lam8n7 0 ) ( > ( + ( * 1 lam8n0 ) ( * 1 lam8n1 ) ( * ( - 1 ) lam8n2 ) ( * 2 lam8n3 ) ( * 2 lam8n4 ) ( * 4 lam8n5 ) ( * Nl11CT1 lam8n6 ) ( * Nl11CT2 lam8n7 ) ( - 1 ) ) 0 ) ( = ( + ( * ( - 1 ) lam8n0 ) ( * 1 lam8n2 ) ( * ( - 1 ) lam8n3 ) ( * ( - 1 ) lam8n4 ) ( * ( - 1 ) lam8n5 ) ( * Nl11arg11 lam8n6 ) ( * Nl11arg12 lam8n7 ) ) 0 ) ( = ( + ( * ( - 1 ) lam8n0 ) ( * ( - 1 ) lam8n1 ) ( * ( - 1 ) lam8n3 ) ( * ( - 1 ) lam8n5 ) ( * Nl11arg21 lam8n6 ) ( * Nl11arg22 lam8n7 ) ) 0 ) ( = ( + ( * 1 lam8n3 ) ( * 1 lam8n4 ) ( * Nl11arg31 lam8n6 ) ( * Nl11arg32 lam8n7 ) ) 0 ) ( = ( + ( * 1 lam8n0 ) ( * ( - 1 ) lam8n2 ) ( * Nl11arg41 lam8n6 ) ( * Nl11arg42 lam8n7 ) ) 0 ) ( = ( + ( * Nl11arg51 lam8n6 ) ( * Nl11arg52 lam8n7 ) ) 0 ) ) ( and ( >= lam9n0 0 ) ( >= lam9n1 0 ) ( >= lam9n2 0 ) ( >= lam9n3 0 ) ( >= lam9n4 0 ) ( >= lam9n5 0 ) ( >= lam9n6 0 ) ( >= lam9n7 0 ) ( >= lam9n8 0 ) ( > ( + ( * 1 lam9n0 ) ( * 1 lam9n1 ) ( * ( - 1 ) lam9n2 ) ( * 2 lam9n3 ) ( * 2 lam9n4 ) ( * ( - 2 ) lam9n5 ) ( * ( - 3 ) lam9n6 ) ( * Nl11CT1 lam9n7 ) ( * Nl11CT2 lam9n8 ) ( - 1 ) ) 0 ) ( = ( + ( * ( - 1 ) lam9n0 ) ( * 1 lam9n2 ) ( * ( - 1 ) lam9n3 ) ( * ( - 1 ) lam9n4 ) ( * 1 lam9n5 ) ( * 1 lam9n6 ) ( * Nl11arg11 lam9n7 ) ( * Nl11arg12 lam9n8 ) ) 0 ) ( = ( + ( * ( - 1 ) lam9n0 ) ( * ( - 1 ) lam9n1 ) ( * ( - 1 ) lam9n3 ) ( * 1 lam9n6 ) ( * Nl11arg21 lam9n7 ) ( * Nl11arg22 lam9n8 ) ) 0 ) ( = ( + ( * 1 lam9n3 ) ( * 1 lam9n4 ) ( * Nl11arg31 lam9n7 ) ( * Nl11arg32 lam9n8 ) ) 0 ) ( = ( + ( * 1 lam9n0 ) ( * ( - 1 ) lam9n2 ) ( * Nl11arg41 lam9n7 ) ( * Nl11arg42 lam9n8 ) ) 0 ) ( = ( + ( * Nl11arg51 lam9n7 ) ( * Nl11arg52 lam9n8 ) ) 0 ) ) ( and ( >= lam10n0 0 ) ( >= lam10n1 0 ) ( >= lam10n2 0 ) ( >= lam10n3 0 ) ( >= lam10n4 0 ) ( >= lam10n5 0 ) ( >= lam10n6 0 ) ( > ( + ( * 1 lam10n0 ) ( * 1 lam10n1 ) ( * ( - 1 ) lam10n2 ) ( * 2 lam10n3 ) ( * 4 lam10n4 ) ( * Nl11CT1 lam10n5 ) ( * Nl11CT2 lam10n6 ) ( - 1 ) ) 0 ) ( = ( + ( * ( - 1 ) lam10n0 ) ( * 1 lam10n2 ) ( * ( - 1 ) lam10n3 ) ( * ( - 1 ) lam10n4 ) ( * Nl11arg11 lam10n5 ) ( * Nl11arg12 lam10n6 ) ) 0 ) ( = ( + ( * ( - 1 ) lam10n0 ) ( * ( - 1 ) lam10n1 ) ( * ( - 1 ) lam10n3 ) ( * ( - 1 ) lam10n4 ) ( * Nl11arg21 lam10n5 ) ( * Nl11arg22 lam10n6 ) ) 0 ) ( = ( + ( * ( - 1 ) lam10n2 ) ( * 1 lam10n3 ) ( * Nl11arg31 lam10n5 ) ( * Nl11arg32 lam10n6 ) ) 0 ) ( = ( + ( * 1 lam10n0 ) ( * Nl11arg41 lam10n5 ) ( * Nl11arg42 lam10n6 ) ) 0 ) ( = ( + ( * Nl11arg51 lam10n5 ) ( * Nl11arg52 lam10n6 ) ) 0 ) ) ( and ( >= lam11n0 0 ) ( >= lam11n1 0 ) ( >= lam11n2 0 ) ( >= lam11n3 0 ) ( >= lam11n4 0 ) ( >= lam11n5 0 ) ( >= lam11n6 0 ) ( >= lam11n7 0 ) ( > ( + ( * 1 lam11n0 ) ( * 1 lam11n1 ) ( * ( - 1 ) lam11n2 ) ( * 2 lam11n3 ) ( * ( - 2 ) lam11n4 ) ( * ( - 3 ) lam11n5 ) ( * Nl11CT1 lam11n6 ) ( * Nl11CT2 lam11n7 ) ( - 1 ) ) 0 ) ( = ( + ( * ( - 1 ) lam11n0 ) ( * 1 lam11n2 ) ( * ( - 1 ) lam11n3 ) ( * 1 lam11n4 ) ( * 1 lam11n5 ) ( * Nl11arg11 lam11n6 ) ( * Nl11arg12 lam11n7 ) ) 0 ) ( = ( + ( * ( - 1 ) lam11n0 ) ( * ( - 1 ) lam11n1 ) ( * ( - 1 ) lam11n3 ) ( * 1 lam11n5 ) ( * Nl11arg21 lam11n6 ) ( * Nl11arg22 lam11n7 ) ) 0 ) ( = ( + ( * ( - 1 ) lam11n2 ) ( * 1 lam11n3 ) ( * Nl11arg31 lam11n6 ) ( * Nl11arg32 lam11n7 ) ) 0 ) ( = ( + ( * 1 lam11n0 ) ( * Nl11arg41 lam11n6 ) ( * Nl11arg42 lam11n7 ) ) 0 ) ( = ( + ( * Nl11arg51 lam11n6 ) ( * Nl11arg52 lam11n7 ) ) 0 ) ) ( and ( >= lam12n0 0 ) ( >= lam12n1 0 ) ( >= lam12n2 0 ) ( >= lam12n3 0 ) ( >= lam12n4 0 ) ( >= lam12n5 0 ) ( >= lam12n6 0 ) ( > ( + ( * 1 lam12n0 ) ( * 1 lam12n1 ) ( * ( - 1 ) lam12n2 ) ( * ( - 1 ) lam12n3 ) ( * 4 lam12n4 ) ( * Nl11CT1 lam12n5 ) ( * Nl11CT2 lam12n6 ) ( - 1 ) ) 0 ) ( = ( + ( * ( - 1 ) lam12n0 ) ( * 1 lam12n2 ) ( * 1 lam12n3 ) ( * ( - 1 ) lam12n4 ) ( * Nl11arg11 lam12n5 ) ( * Nl11arg12 lam12n6 ) ) 0 ) ( = ( + ( * ( - 1 ) lam12n0 ) ( * ( - 1 ) lam12n1 ) ( * 1 lam12n2 ) ( * ( - 1 ) lam12n4 ) ( * Nl11arg21 lam12n5 ) ( * Nl11arg22 lam12n6 ) ) 0 ) ( = ( + ( * ( - 1 ) lam12n2 ) ( * ( - 1 ) lam12n3 ) ( * Nl11arg31 lam12n5 ) ( * Nl11arg32 lam12n6 ) ) 0 ) ( = ( + ( * 1 lam12n0 ) ( * Nl11arg41 lam12n5 ) ( * Nl11arg42 lam12n6 ) ) 0 ) ( = ( + ( * Nl11arg51 lam12n5 ) ( * Nl11arg52 lam12n6 ) ) 0 ) ) ( and ( >= lam13n0 0 ) ( >= lam13n1 0 ) ( >= lam13n2 0 ) ( >= lam13n3 0 ) ( >= lam13n4 0 ) ( >= lam13n5 0 ) ( >= lam13n6 0 ) ( >= lam13n7 0 ) ( > ( + ( * 1 lam13n0 ) ( * 1 lam13n1 ) ( * ( - 1 ) lam13n2 ) ( * ( - 1 ) lam13n3 ) ( * ( - 2 ) lam13n4 ) ( * ( - 3 ) lam13n5 ) ( * Nl11CT1 lam13n6 ) ( * Nl11CT2 lam13n7 ) ( - 1 ) ) 0 ) ( = ( + ( * ( - 1 ) lam13n0 ) ( * 1 lam13n2 ) ( * 1 lam13n3 ) ( * 1 lam13n4 ) ( * 1 lam13n5 ) ( * Nl11arg11 lam13n6 ) ( * Nl11arg12 lam13n7 ) ) 0 ) ( = ( + ( * ( - 1 ) lam13n0 ) ( * ( - 1 ) lam13n1 ) ( * 1 lam13n2 ) ( * 1 lam13n5 ) ( * Nl11arg21 lam13n6 ) ( * Nl11arg22 lam13n7 ) ) 0 ) ( = ( + ( * ( - 1 ) lam13n2 ) ( * ( - 1 ) lam13n3 ) ( * Nl11arg31 lam13n6 ) ( * Nl11arg32 lam13n7 ) ) 0 ) ( = ( + ( * 1 lam13n0 ) ( * Nl11arg41 lam13n6 ) ( * Nl11arg42 lam13n7 ) ) 0 ) ( = ( + ( * Nl11arg51 lam13n6 ) ( * Nl11arg52 lam13n7 ) ) 0 ) ) ( and ( >= lam14n0 0 ) ( >= lam14n1 0 ) ( >= lam14n2 0 ) ( >= lam14n3 0 ) ( >= lam14n4 0 ) ( >= lam14n5 0 ) ( >= lam14n6 0 ) ( >= lam14n7 0 ) ( > ( + ( * 1 lam14n0 ) ( * 2 lam14n2 ) ( * 2 lam14n3 ) ( * 4 lam14n4 ) ( * 3 lam14n5 ) ( * Nl11CT1 lam14n6 ) ( * Nl11CT2 lam14n7 ) ( - 1 ) ) 0 ) ( = ( + ( * ( - 1 ) lam14n0 ) ( * ( - 1 ) lam14n2 ) ( * ( - 1 ) lam14n3 ) ( * ( - 1 ) lam14n4 ) ( * ( - 1 ) lam14n5 ) ( * Nl11arg11 lam14n6 ) ( * Nl11arg12 lam14n7 ) ) 0 ) ( = ( + ( * ( - 1 ) lam14n0 ) ( * 1 lam14n1 ) ( * ( - 1 ) lam14n2 ) ( * ( - 1 ) lam14n4 ) ( * Nl11arg21 lam14n6 ) ( * Nl11arg22 lam14n7 ) ) 0 ) ( = ( + ( * 1 lam14n2 ) ( * 1 lam14n3 ) ( * Nl11arg31 lam14n6 ) ( * Nl11arg32 lam14n7 ) ) 0 ) ( = ( + ( * 1 lam14n0 ) ( * Nl11arg41 lam14n6 ) ( * Nl11arg42 lam14n7 ) ) 0 ) ( = ( + ( * Nl11arg51 lam14n6 ) ( * Nl11arg52 lam14n7 ) ) 0 ) ) ( and ( >= lam15n0 0 ) ( >= lam15n1 0 ) ( >= lam15n2 0 ) ( >= lam15n3 0 ) ( >= lam15n4 0 ) ( >= lam15n5 0 ) ( >= lam15n6 0 ) ( > ( + ( * 1 lam15n0 ) ( * 2 lam15n2 ) ( * 2 lam15n3 ) ( * ( - 3 ) lam15n4 ) ( * Nl11CT1 lam15n5 ) ( * Nl11CT2 lam15n6 ) ( - 1 ) ) 0 ) ( = ( + ( * ( - 1 ) lam15n0 ) ( * ( - 1 ) lam15n2 ) ( * ( - 1 ) lam15n3 ) ( * 1 lam15n4 ) ( * Nl11arg11 lam15n5 ) ( * Nl11arg12 lam15n6 ) ) 0 ) ( = ( + ( * ( - 1 ) lam15n0 ) ( * 1 lam15n1 ) ( * ( - 1 ) lam15n2 ) ( * 1 lam15n4 ) ( * Nl11arg21 lam15n5 ) ( * Nl11arg22 lam15n6 ) ) 0 ) ( = ( + ( * 1 lam15n2 ) ( * 1 lam15n3 ) ( * Nl11arg31 lam15n5 ) ( * Nl11arg32 lam15n6 ) ) 0 ) ( = ( + ( * 1 lam15n0 ) ( * Nl11arg41 lam15n5 ) ( * Nl11arg42 lam15n6 ) ) 0 ) ( = ( + ( * Nl11arg51 lam15n5 ) ( * Nl11arg52 lam15n6 ) ) 0 ) ) ( and ( >= lam16n0 0 ) ( >= lam16n1 0 ) ( >= lam16n2 0 ) ( >= lam16n3 0 ) ( >= lam16n4 0 ) ( >= lam16n5 0 ) ( >= lam16n6 0 ) ( >= lam16n7 0 ) ( >= lam16n8 0 ) ( > ( + ( * 1 lam16n0 ) ( * ( - 1 ) lam16n1 ) ( * 2 lam16n3 ) ( * 2 lam16n4 ) ( * 4 lam16n5 ) ( * 3 lam16n6 ) ( * Nl11CT1 lam16n7 ) ( * Nl11CT2 lam16n8 ) ( - 1 ) ) 0 ) ( = ( + ( * ( - 1 ) lam16n0 ) ( * 1 lam16n1 ) ( * ( - 1 ) lam16n3 ) ( * ( - 1 ) lam16n4 ) ( * ( - 1 ) lam16n5 ) ( * ( - 1 ) lam16n6 ) ( * Nl11arg11 lam16n7 ) ( * Nl11arg12 lam16n8 ) ) 0 ) ( = ( + ( * ( - 1 ) lam16n0 ) ( * 1 lam16n1 ) ( * 1 lam16n2 ) ( * ( - 1 ) lam16n5 ) ( * Nl11arg21 lam16n7 ) ( * Nl11arg22 lam16n8 ) ) 0 ) ( = ( + ( * ( - 1 ) lam16n1 ) ( * 1 lam16n3 ) ( * Nl11arg31 lam16n7 ) ( * Nl11arg32 lam16n8 ) ) 0 ) ( = ( + ( * 1 lam16n0 ) ( * 1 lam16n4 ) ( * Nl11arg41 lam16n7 ) ( * Nl11arg42 lam16n8 ) ) 0 ) ( = ( + ( * Nl11arg51 lam16n7 ) ( * Nl11arg52 lam16n8 ) ) 0 ) ) ( and ( >= lam17n0 0 ) ( >= lam17n1 0 ) ( >= lam17n2 0 ) ( >= lam17n3 0 ) ( >= lam17n4 0 ) ( >= lam17n5 0 ) ( >= lam17n6 0 ) ( >= lam17n7 0 ) ( > ( + ( * 1 lam17n0 ) ( * ( - 1 ) lam17n1 ) ( * 2 lam17n3 ) ( * 2 lam17n4 ) ( * ( - 3 ) lam17n5 ) ( * Nl11CT1 lam17n6 ) ( * Nl11CT2 lam17n7 ) ( - 1 ) ) 0 ) ( = ( + ( * ( - 1 ) lam17n0 ) ( * 1 lam17n1 ) ( * ( - 1 ) lam17n3 ) ( * ( - 1 ) lam17n4 ) ( * 1 lam17n5 ) ( * Nl11arg11 lam17n6 ) ( * Nl11arg12 lam17n7 ) ) 0 ) ( = ( + ( * ( - 1 ) lam17n0 ) ( * 1 lam17n1 ) ( * 1 lam17n2 ) ( * 1 lam17n5 ) ( * Nl11arg21 lam17n6 ) ( * Nl11arg22 lam17n7 ) ) 0 ) ( = ( + ( * ( - 1 ) lam17n1 ) ( * 1 lam17n3 ) ( * Nl11arg31 lam17n6 ) ( * Nl11arg32 lam17n7 ) ) 0 ) ( = ( + ( * 1 lam17n0 ) ( * 1 lam17n4 ) ( * Nl11arg41 lam17n6 ) ( * Nl11arg42 lam17n7 ) ) 0 ) ( = ( + ( * Nl11arg51 lam17n6 ) ( * Nl11arg52 lam17n7 ) ) 0 ) ) ( and ( >= lam18n0 0 ) ( >= lam18n1 0 ) ( >= lam18n2 0 ) ( >= lam18n3 0 ) ( >= lam18n4 0 ) ( >= lam18n5 0 ) ( >= lam18n6 0 ) ( >= lam18n7 0 ) ( > ( + ( * 1 lam18n0 ) ( * ( - 1 ) lam18n1 ) ( * ( - 1 ) lam18n2 ) ( * 4 lam18n4 ) ( * 3 lam18n5 ) ( * Nl11CT1 lam18n6 ) ( * Nl11CT2 lam18n7 ) ( - 1 ) ) 0 ) ( = ( + ( * ( - 1 ) lam18n0 ) ( * 1 lam18n1 ) ( * 1 lam18n2 ) ( * ( - 1 ) lam18n4 ) ( * ( - 1 ) lam18n5 ) ( * Nl11arg11 lam18n6 ) ( * Nl11arg12 lam18n7 ) ) 0 ) ( = ( + ( * ( - 1 ) lam18n0 ) ( * 1 lam18n1 ) ( * 1 lam18n3 ) ( * ( - 1 ) lam18n4 ) ( * Nl11arg21 lam18n6 ) ( * Nl11arg22 lam18n7 ) ) 0 ) ( = ( + ( * ( - 1 ) lam18n1 ) ( * ( - 1 ) lam18n2 ) ( * Nl11arg31 lam18n6 ) ( * Nl11arg32 lam18n7 ) ) 0 ) ( = ( + ( * 1 lam18n0 ) ( * Nl11arg41 lam18n6 ) ( * Nl11arg42 lam18n7 ) ) 0 ) ( = ( + ( * Nl11arg51 lam18n6 ) ( * Nl11arg52 lam18n7 ) ) 0 ) ) ( and ( >= lam19n0 0 ) ( >= lam19n1 0 ) ( >= lam19n2 0 ) ( >= lam19n3 0 ) ( >= lam19n4 0 ) ( >= lam19n5 0 ) ( >= lam19n6 0 ) ( > ( + ( * 1 lam19n0 ) ( * ( - 1 ) lam19n1 ) ( * ( - 1 ) lam19n2 ) ( * ( - 3 ) lam19n4 ) ( * Nl11CT1 lam19n5 ) ( * Nl11CT2 lam19n6 ) ( - 1 ) ) 0 ) ( = ( + ( * ( - 1 ) lam19n0 ) ( * 1 lam19n1 ) ( * 1 lam19n2 ) ( * 1 lam19n4 ) ( * Nl11arg11 lam19n5 ) ( * Nl11arg12 lam19n6 ) ) 0 ) ( = ( + ( * ( - 1 ) lam19n0 ) ( * 1 lam19n1 ) ( * 1 lam19n3 ) ( * 1 lam19n4 ) ( * Nl11arg21 lam19n5 ) ( * Nl11arg22 lam19n6 ) ) 0 ) ( = ( + ( * ( - 1 ) lam19n1 ) ( * ( - 1 ) lam19n2 ) ( * Nl11arg31 lam19n5 ) ( * Nl11arg32 lam19n6 ) ) 0 ) ( = ( + ( * 1 lam19n0 ) ( * Nl11arg41 lam19n5 ) ( * Nl11arg42 lam19n6 ) ) 0 ) ( = ( + ( * Nl11arg51 lam19n5 ) ( * Nl11arg52 lam19n6 ) ) 0 ) ) ( and ( >= lam20n0 0 ) ( >= lam20n1 0 ) ( >= lam20n2 0 ) ( >= lam20n3 0 ) ( >= lam20n4 0 ) ( >= lam20n5 0 ) ( >= lam20n6 0 ) ( > ( + ( * 1 lam20n0 ) ( * ( - 1 ) lam20n1 ) ( * 2 lam20n3 ) ( * 4 lam20n4 ) ( * Nl11CT1 lam20n5 ) ( * Nl11CT2 lam20n6 ) ( - 1 ) ) 0 ) ( = ( + ( * 1 lam20n1 ) ( * 1 lam20n2 ) ( * ( - 1 ) lam20n3 ) ( * ( - 1 ) lam20n4 ) ( * Nl11arg11 lam20n5 ) ( * Nl11arg12 lam20n6 ) ) 0 ) ( = ( + ( * ( - 1 ) lam20n0 ) ( * 1 lam20n2 ) ( * ( - 1 ) lam20n3 ) ( * ( - 1 ) lam20n4 ) ( * Nl11arg21 lam20n5 ) ( * Nl11arg22 lam20n6 ) ) 0 ) ( = ( + ( * 1 lam20n3 ) ( * Nl11arg31 lam20n5 ) ( * Nl11arg32 lam20n6 ) ) 0 ) ( = ( + ( * ( - 1 ) lam20n1 ) ( * ( - 1 ) lam20n2 ) ( * Nl11arg41 lam20n5 ) ( * Nl11arg42 lam20n6 ) ) 0 ) ( = ( + ( * Nl11arg51 lam20n5 ) ( * Nl11arg52 lam20n6 ) ) 0 ) ) ( and ( >= lam21n0 0 ) ( >= lam21n1 0 ) ( >= lam21n2 0 ) ( >= lam21n3 0 ) ( >= lam21n4 0 ) ( >= lam21n5 0 ) ( >= lam21n6 0 ) ( >= lam21n7 0 ) ( > ( + ( * 1 lam21n0 ) ( * ( - 1 ) lam21n1 ) ( * 2 lam21n3 ) ( * ( - 2 ) lam21n4 ) ( * ( - 3 ) lam21n5 ) ( * Nl11CT1 lam21n6 ) ( * Nl11CT2 lam21n7 ) ( - 1 ) ) 0 ) ( = ( + ( * 1 lam21n1 ) ( * 1 lam21n2 ) ( * ( - 1 ) lam21n3 ) ( * 1 lam21n4 ) ( * 1 lam21n5 ) ( * Nl11arg11 lam21n6 ) ( * Nl11arg12 lam21n7 ) ) 0 ) ( = ( + ( * ( - 1 ) lam21n0 ) ( * 1 lam21n2 ) ( * ( - 1 ) lam21n3 ) ( * 1 lam21n5 ) ( * Nl11arg21 lam21n6 ) ( * Nl11arg22 lam21n7 ) ) 0 ) ( = ( + ( * 1 lam21n3 ) ( * Nl11arg31 lam21n6 ) ( * Nl11arg32 lam21n7 ) ) 0 ) ( = ( + ( * ( - 1 ) lam21n1 ) ( * ( - 1 ) lam21n2 ) ( * Nl11arg41 lam21n6 ) ( * Nl11arg42 lam21n7 ) ) 0 ) ( = ( + ( * Nl11arg51 lam21n6 ) ( * Nl11arg52 lam21n7 ) ) 0 ) ) ( and ( >= lam22n0 0 ) ( >= lam22n1 0 ) ( >= lam22n2 0 ) ( >= lam22n3 0 ) ( >= lam22n4 0 ) ( >= lam22n5 0 ) ( >= lam22n6 0 ) ( >= lam22n7 0 ) ( > ( + ( * 1 lam22n0 ) ( * ( - 1 ) lam22n1 ) ( * ( - 1 ) lam22n2 ) ( * ( - 1 ) lam22n3 ) ( * 4 lam22n5 ) ( * Nl11CT1 lam22n6 ) ( * Nl11CT2 lam22n7 ) ( - 1 ) ) 0 ) ( = ( + ( * 1 lam22n1 ) ( * 1 lam22n2 ) ( * 1 lam22n3 ) ( * 1 lam22n4 ) ( * ( - 1 ) lam22n5 ) ( * Nl11arg11 lam22n6 ) ( * Nl11arg12 lam22n7 ) ) 0 ) ( = ( + ( * ( - 1 ) lam22n0 ) ( * 1 lam22n1 ) ( * 1 lam22n4 ) ( * ( - 1 ) lam22n5 ) ( * Nl11arg21 lam22n6 ) ( * Nl11arg22 lam22n7 ) ) 0 ) ( = ( + ( * ( - 1 ) lam22n1 ) ( * ( - 1 ) lam22n2 ) ( * Nl11arg31 lam22n6 ) ( * Nl11arg32 lam22n7 ) ) 0 ) ( = ( + ( * ( - 1 ) lam22n3 ) ( * ( - 1 ) lam22n4 ) ( * Nl11arg41 lam22n6 ) ( * Nl11arg42 lam22n7 ) ) 0 ) ( = ( + ( * Nl11arg51 lam22n6 ) ( * Nl11arg52 lam22n7 ) ) 0 ) ) ( and ( >= lam23n0 0 ) ( >= lam23n1 0 ) ( >= lam23n2 0 ) ( >= lam23n3 0 ) ( >= lam23n4 0 ) ( >= lam23n5 0 ) ( >= lam23n6 0 ) ( >= lam23n7 0 ) ( >= lam23n8 0 ) ( > ( + ( * 1 lam23n0 ) ( * ( - 1 ) lam23n1 ) ( * ( - 1 ) lam23n2 ) ( * ( - 1 ) lam23n3 ) ( * ( - 2 ) lam23n5 ) ( * ( - 3 ) lam23n6 ) ( * Nl11CT1 lam23n7 ) ( * Nl11CT2 lam23n8 ) ( - 1 ) ) 0 ) ( = ( + ( * 1 lam23n1 ) ( * 1 lam23n2 ) ( * 1 lam23n3 ) ( * 1 lam23n4 ) ( * 1 lam23n5 ) ( * 1 lam23n6 ) ( * Nl11arg11 lam23n7 ) ( * Nl11arg12 lam23n8 ) ) 0 ) ( = ( + ( * ( - 1 ) lam23n0 ) ( * 1 lam23n1 ) ( * 1 lam23n4 ) ( * 1 lam23n6 ) ( * Nl11arg21 lam23n7 ) ( * Nl11arg22 lam23n8 ) ) 0 ) ( = ( + ( * ( - 1 ) lam23n1 ) ( * ( - 1 ) lam23n2 ) ( * Nl11arg31 lam23n7 ) ( * Nl11arg32 lam23n8 ) ) 0 ) ( = ( + ( * ( - 1 ) lam23n3 ) ( * ( - 1 ) lam23n4 ) ( * Nl11arg41 lam23n7 ) ( * Nl11arg42 lam23n8 ) ) 0 ) ( = ( + ( * Nl11arg51 lam23n7 ) ( * Nl11arg52 lam23n8 ) ) 0 ) ) ( and ( >= lam24n0 0 ) ( >= lam24n1 0 ) ( >= lam24n2 0 ) ( >= lam24n3 0 ) ( >= lam24n4 0 ) ( >= lam24n5 0 ) ( >= lam24n6 0 ) ( >= lam24n7 0 ) ( > ( + ( * 2 lam24n2 ) ( * 2 lam24n3 ) ( * 4 lam24n4 ) ( * 3 lam24n5 ) ( * Nl11CT1 lam24n6 ) ( * Nl11CT2 lam24n7 ) ( - 1 ) ) 0 ) ( = ( + ( * 1 lam24n0 ) ( * ( - 1 ) lam24n2 ) ( * ( - 1 ) lam24n3 ) ( * ( - 1 ) lam24n4 ) ( * ( - 1 ) lam24n5 ) ( * Nl11arg11 lam24n6 ) ( * Nl11arg12 lam24n7 ) ) 0 ) ( = ( + ( * 1 lam24n0 ) ( * 1 lam24n1 ) ( * ( - 1 ) lam24n2 ) ( * ( - 1 ) lam24n4 ) ( * Nl11arg21 lam24n6 ) ( * Nl11arg22 lam24n7 ) ) 0 ) ( = ( + ( * 1 lam24n2 ) ( * 1 lam24n3 ) ( * Nl11arg31 lam24n6 ) ( * Nl11arg32 lam24n7 ) ) 0 ) ( = ( + ( * ( - 1 ) lam24n0 ) ( * Nl11arg41 lam24n6 ) ( * Nl11arg42 lam24n7 ) ) 0 ) ( = ( + ( * Nl11arg51 lam24n6 ) ( * Nl11arg52 lam24n7 ) ) 0 ) ) ( and ( >= lam25n0 0 ) ( >= lam25n1 0 ) ( >= lam25n2 0 ) ( >= lam25n3 0 ) ( >= lam25n4 0 ) ( >= lam25n5 0 ) ( >= lam25n6 0 ) ( > ( + ( * 2 lam25n2 ) ( * 2 lam25n3 ) ( * ( - 3 ) lam25n4 ) ( * Nl11CT1 lam25n5 ) ( * Nl11CT2 lam25n6 ) ( - 1 ) ) 0 ) ( = ( + ( * 1 lam25n0 ) ( * ( - 1 ) lam25n2 ) ( * ( - 1 ) lam25n3 ) ( * 1 lam25n4 ) ( * Nl11arg11 lam25n5 ) ( * Nl11arg12 lam25n6 ) ) 0 ) ( = ( + ( * 1 lam25n0 ) ( * 1 lam25n1 ) ( * ( - 1 ) lam25n2 ) ( * 1 lam25n4 ) ( * Nl11arg21 lam25n5 ) ( * Nl11arg22 lam25n6 ) ) 0 ) ( = ( + ( * 1 lam25n2 ) ( * 1 lam25n3 ) ( * Nl11arg31 lam25n5 ) ( * Nl11arg32 lam25n6 ) ) 0 ) ( = ( + ( * ( - 1 ) lam25n0 ) ( * Nl11arg41 lam25n5 ) ( * Nl11arg42 lam25n6 ) ) 0 ) ( = ( + ( * Nl11arg51 lam25n5 ) ( * Nl11arg52 lam25n6 ) ) 0 ) ) ( and ( >= lam26n0 0 ) ( >= lam26n1 0 ) ( >= lam26n2 0 ) ( >= lam26n3 0 ) ( >= lam26n4 0 ) ( >= lam26n5 0 ) ( >= lam26n6 0 ) ( > ( + ( * ( - 1 ) lam26n0 ) ( * 4 lam26n3 ) ( * 3 lam26n4 ) ( * Nl11CT1 lam26n5 ) ( * Nl11CT2 lam26n6 ) ( - 1 ) ) 0 ) ( = ( + ( * 1 lam26n0 ) ( * 1 lam26n1 ) ( * ( - 1 ) lam26n3 ) ( * ( - 1 ) lam26n4 ) ( * Nl11arg11 lam26n5 ) ( * Nl11arg12 lam26n6 ) ) 0 ) ( = ( + ( * 1 lam26n0 ) ( * 1 lam26n1 ) ( * 1 lam26n2 ) ( * ( - 1 ) lam26n3 ) ( * Nl11arg21 lam26n5 ) ( * Nl11arg22 lam26n6 ) ) 0 ) ( = ( + ( * ( - 1 ) lam26n0 ) ( * Nl11arg31 lam26n5 ) ( * Nl11arg32 lam26n6 ) ) 0 ) ( = ( + ( * ( - 1 ) lam26n1 ) ( * Nl11arg41 lam26n5 ) ( * Nl11arg42 lam26n6 ) ) 0 ) ( = ( + ( * Nl11arg51 lam26n5 ) ( * Nl11arg52 lam26n6 ) ) 0 ) ) ( and ( >= lam27n0 0 ) ( >= lam27n1 0 ) ( >= lam27n2 0 ) ( >= lam27n3 0 ) ( >= lam27n4 0 ) ( >= lam27n5 0 ) ( > ( + ( * ( - 1 ) lam27n0 ) ( * ( - 3 ) lam27n3 ) ( * Nl11CT1 lam27n4 ) ( * Nl11CT2 lam27n5 ) ( - 1 ) ) 0 ) ( = ( + ( * 1 lam27n0 ) ( * 1 lam27n1 ) ( * 1 lam27n3 ) ( * Nl11arg11 lam27n4 ) ( * Nl11arg12 lam27n5 ) ) 0 ) ( = ( + ( * 1 lam27n0 ) ( * 1 lam27n1 ) ( * 1 lam27n2 ) ( * 1 lam27n3 ) ( * Nl11arg21 lam27n4 ) ( * Nl11arg22 lam27n5 ) ) 0 ) ( = ( + ( * ( - 1 ) lam27n0 ) ( * Nl11arg31 lam27n4 ) ( * Nl11arg32 lam27n5 ) ) 0 ) ( = ( + ( * ( - 1 ) lam27n1 ) ( * Nl11arg41 lam27n4 ) ( * Nl11arg42 lam27n5 ) ) 0 ) ( = ( + ( * Nl11arg51 lam27n4 ) ( * Nl11arg52 lam27n5 ) ) 0 ) ) ))
(assert ( and ( and ( <= ( + Nl11CT1 ( * Nl11arg11 FV_arg1_2 ) ( * Nl11arg21 FV_arg2_2 ) ( * Nl11arg41 FV_arg4_2 ) ( * Nl11arg31 FV_arg3_2 ) ( * Nl11arg51 FV_arg5_2 ) ) 0 ) ( <= ( + Nl11CT2 ( * Nl11arg12 FV_arg1_2 ) ( * Nl11arg22 FV_arg2_2 ) ( * Nl11arg42 FV_arg4_2 ) ( * Nl11arg32 FV_arg3_2 ) ( * Nl11arg52 FV_arg5_2 ) ) 0 ) ) ( and ( <= ( + 1 ( * ( - 1 ) FV_arg1_2 ) ( * ( - 1 ) FV_arg2_2 ) FV_arg4_2 ) 0 ) ( <= ( + 1 ( * ( - 1 ) FV_arg2_2 ) ) 0 ) ( <= ( + 1 ( * ( - 1 ) FV_undef304_2 ) ) 0 ) ( <= ( * ( - 1 ) FV_undef305_2 ) 0 ) ( <= ( + 2 ( * ( - 1 ) FV_arg1_2 ) ( * ( - 1 ) FV_arg2_2 ) FV_arg3_2 ) 0 ) ( <= ( + 2 ( * ( - 1 ) FV_arg1_2 ) FV_arg3_2 ) 0 ) ( <= ( + 2 ( * ( - 1 ) FV_arg1_2 ) FV_arg4_2 ) 0 ) ( <= ( + 4 ( * ( - 1 ) FV_arg1_2 ) ( * ( - 1 ) FV_arg2_2 ) ) 0 ) ( <= ( + 3 ( * ( - 1 ) FV_arg1_2 ) ) 0 ) ) ))
(check-sat)
(exit)
